GLPK/HW-0612/hw-3.txt
Problem:    hw
Rows:       149
Columns:    128 (128 integer, 128 binary)
Non-zeros:  676
Status:     INTEGER OPTIMAL
Objective:  PATH_COST = 12 (MINimum)

   No.   Row name        Activity     Lower bound   Upper bound
------ ------------    ------------- ------------- -------------
     1 PATH_COST                  12                             
     2 INTERNAL[2,1]
                                   0            -0             = 
     3 INTERNAL[2,2]
                                   0            -0             = 
     4 INTERNAL[3,1]
                                   0            -0             = 
     5 INTERNAL[3,2]
                                   0            -0             = 
     6 INTERNAL[4,1]
                                   0            -0             = 
     7 INTERNAL[4,2]
                                   0            -0             = 
     8 INTERNAL[5,1]
                                   0            -0             = 
     9 INTERNAL[5,2]
                                   0            -0             = 
    10 INTERNAL[6,1]
                                   0            -0             = 
    11 INTERNAL[6,2]
                                   0            -0             = 
    12 INTERNAL[7,1]
                                   0            -0             = 
    13 INTERNAL[7,2]
                                   0            -0             = 
    14 SOURCE[1,1]                 1             1             = 
    15 SOURCE[1,2]                 1             1             = 
    16 DISJOINT[1,1,1,2]
                                   0                           1 
    17 DISJOINT[1,1,2,1]
                                   0                           1 
    18 DISJOINT[1,2,1,2]
                                   0                           1 
    19 DISJOINT[1,2,2,1]
                                   1                           1 
    20 DISJOINT[1,3,1,2]
                                   0                           1 
    21 DISJOINT[1,3,2,1]
                                   0                           1 
    22 DISJOINT[1,4,1,2]
                                   0                           1 
    23 DISJOINT[1,4,2,1]
                                   0                           1 
    24 DISJOINT[1,5,1,2]
                                   1                           1 
    25 DISJOINT[1,5,2,1]
                                   0                           1 
    26 DISJOINT[1,6,1,2]
                                   0                           1 
    27 DISJOINT[1,6,2,1]
                                   0                           1 
    28 DISJOINT[1,7,1,2]
                                   0                           1 
    29 DISJOINT[1,7,2,1]
                                   0                           1 
    30 DISJOINT[1,8,1,2]
                                   0                           1 
    31 DISJOINT[1,8,2,1]
                                   0                           1 
    32 DISJOINT[2,1,1,2]
                                   1                           1 
    33 DISJOINT[2,1,2,1]
                                   0                           1 
    34 DISJOINT[2,2,1,2]
                                   0                           1 
    35 DISJOINT[2,2,2,1]
                                   0                           1 
    36 DISJOINT[2,3,1,2]
                                   0                           1 
    37 DISJOINT[2,3,2,1]
                                   1                           1 
    38 DISJOINT[2,4,1,2]
                                   0                           1 
    39 DISJOINT[2,4,2,1]
                                   0                           1 
    40 DISJOINT[2,5,1,2]
                                   0                           1 
    41 DISJOINT[2,5,2,1]
                                   0                           1 
    42 DISJOINT[2,6,1,2]
                                   0                           1 
    43 DISJOINT[2,6,2,1]
                                   0                           1 
    44 DISJOINT[2,7,1,2]
                                   0                           1 
    45 DISJOINT[2,7,2,1]
                                   0                           1 
    46 DISJOINT[2,8,1,2]
                                   0                           1 
    47 DISJOINT[2,8,2,1]
                                   0                           1 
    48 DISJOINT[3,1,1,2]
                                   0                           1 
    49 DISJOINT[3,1,2,1]
                                   0                           1 
    50 DISJOINT[3,2,1,2]
                                   1                           1 
    51 DISJOINT[3,2,2,1]
                                   0                           1 
    52 DISJOINT[3,3,1,2]
                                   0                           1 
    53 DISJOINT[3,3,2,1]
                                   0                           1 
    54 DISJOINT[3,4,1,2]
                                   0                           1 
    55 DISJOINT[3,4,2,1]
                                   0                           1 
    56 DISJOINT[3,5,1,2]
                                   0                           1 
    57 DISJOINT[3,5,2,1]
                                   0                           1 
    58 DISJOINT[3,6,1,2]
                                   0                           1 
    59 DISJOINT[3,6,2,1]
                                   0                           1 
    60 DISJOINT[3,7,1,2]
                                   0                           1 
    61 DISJOINT[3,7,2,1]
                                   1                           1 
    62 DISJOINT[3,8,1,2]
                                   0                           1 
    63 DISJOINT[3,8,2,1]
                                   0                           1 
    64 DISJOINT[4,1,1,2]
                                   0                           1 
    65 DISJOINT[4,1,2,1]
                                   0                           1 
    66 DISJOINT[4,2,1,2]
                                   0                           1 
    67 DISJOINT[4,2,2,1]
                                   0                           1 
    68 DISJOINT[4,3,1,2]
                                   0                           1 
    69 DISJOINT[4,3,2,1]
                                   0                           1 
    70 DISJOINT[4,4,1,2]
                                   0                           1 
    71 DISJOINT[4,4,2,1]
                                   0                           1 
    72 DISJOINT[4,5,1,2]
                                   0                           1 
    73 DISJOINT[4,5,2,1]
                                   0                           1 
    74 DISJOINT[4,6,1,2]
                                   0                           1 
    75 DISJOINT[4,6,2,1]
                                   1                           1 
    76 DISJOINT[4,7,1,2]
                                   0                           1 
    77 DISJOINT[4,7,2,1]
                                   0                           1 
    78 DISJOINT[4,8,1,2]
                                   1                           1 
    79 DISJOINT[4,8,2,1]
                                   0                           1 
    80 DISJOINT[5,1,1,2]
                                   0                           1 
    81 DISJOINT[5,1,2,1]
                                   1                           1 
    82 DISJOINT[5,2,1,2]
                                   0                           1 
    83 DISJOINT[5,2,2,1]
                                   0                           1 
    84 DISJOINT[5,3,1,2]
                                   0                           1 
    85 DISJOINT[5,3,2,1]
                                   0                           1 
    86 DISJOINT[5,4,1,2]
                                   0                           1 
    87 DISJOINT[5,4,2,1]
                                   0                           1 
    88 DISJOINT[5,5,1,2]
                                   0                           1 
    89 DISJOINT[5,5,2,1]
                                   0                           1 
    90 DISJOINT[5,6,1,2]
                                   1                           1 
    91 DISJOINT[5,6,2,1]
                                   0                           1 
    92 DISJOINT[5,7,1,2]
                                   0                           1 
    93 DISJOINT[5,7,2,1]
                                   0                           1 
    94 DISJOINT[5,8,1,2]
                                   0                           1 
    95 DISJOINT[5,8,2,1]
                                   0                           1 
    96 DISJOINT[6,1,1,2]
                                   0                           1 
    97 DISJOINT[6,1,2,1]
                                   0                           1 
    98 DISJOINT[6,2,1,2]
                                   0                           1 
    99 DISJOINT[6,2,2,1]
                                   0                           1 
   100 DISJOINT[6,3,1,2]
                                   0                           1 
   101 DISJOINT[6,3,2,1]
                                   0                           1 
   102 DISJOINT[6,4,1,2]
                                   1                           1 
   103 DISJOINT[6,4,2,1]
                                   0                           1 
   104 DISJOINT[6,5,1,2]
                                   0                           1 
   105 DISJOINT[6,5,2,1]
                                   1                           1 
   106 DISJOINT[6,6,1,2]
                                   0                           1 
   107 DISJOINT[6,6,2,1]
                                   0                           1 
   108 DISJOINT[6,7,1,2]
                                   0                           1 
   109 DISJOINT[6,7,2,1]
                                   0                           1 
   110 DISJOINT[6,8,1,2]
                                   0                           1 
   111 DISJOINT[6,8,2,1]
                                   0                           1 
   112 DISJOINT[7,1,1,2]
                                   0                           1 
   113 DISJOINT[7,1,2,1]
                                   0                           1 
   114 DISJOINT[7,2,1,2]
                                   0                           1 
   115 DISJOINT[7,2,2,1]
                                   0                           1 
   116 DISJOINT[7,3,1,2]
                                   1                           1 
   117 DISJOINT[7,3,2,1]
                                   0                           1 
   118 DISJOINT[7,4,1,2]
                                   0                           1 
   119 DISJOINT[7,4,2,1]
                                   0                           1 
   120 DISJOINT[7,5,1,2]
                                   0                           1 
   121 DISJOINT[7,5,2,1]
                                   0                           1 
   122 DISJOINT[7,6,1,2]
                                   0                           1 
   123 DISJOINT[7,6,2,1]
                                   0                           1 
   124 DISJOINT[7,7,1,2]
                                   0                           1 
   125 DISJOINT[7,7,2,1]
                                   0                           1 
   126 DISJOINT[7,8,1,2]
                                   0                           1 
   127 DISJOINT[7,8,2,1]
                                   1                           1 
   128 DISJOINT[8,1,1,2]
                                   0                           1 
   129 DISJOINT[8,1,2,1]
                                   0                           1 
   130 DISJOINT[8,2,1,2]
                                   0                           1 
   131 DISJOINT[8,2,2,1]
                                   0                           1 
   132 DISJOINT[8,3,1,2]
                                   0                           1 
   133 DISJOINT[8,3,2,1]
                                   0                           1 
   134 DISJOINT[8,4,1,2]
                                   0                           1 
   135 DISJOINT[8,4,2,1]
                                   1                           1 
   136 DISJOINT[8,5,1,2]
                                   0                           1 
   137 DISJOINT[8,5,2,1]
                                   0                           1 
   138 DISJOINT[8,6,1,2]
                                   0                           1 
   139 DISJOINT[8,6,2,1]
                                   0                           1 
   140 DISJOINT[8,7,1,2]
                                   1                           1 
   141 DISJOINT[8,7,2,1]
                                   0                           1 
   142 DISJOINT[8,8,1,2]
                                   0                           1 
   143 DISJOINT[8,8,2,1]
                                   0                           1 
   144 DISJOINT_NODE[2]
                                   1                           1 
   145 DISJOINT_NODE[3]
                                   1                           1 
   146 DISJOINT_NODE[4]
                                   1                           1 
   147 DISJOINT_NODE[5]
                                   1                           1 
   148 DISJOINT_NODE[6]
                                   1                           1 
   149 DISJOINT_NODE[7]
                                   1                           1 

   No. Column name       Activity     Lower bound   Upper bound
------ ------------    ------------- ------------- -------------
     1 x[1,1,1]     *              0             0             1 
     2 x[1,2,1]     *              0             0             1 
     3 x[1,3,1]     *              0             0             1 
     4 x[1,4,1]     *              0             0             1 
     5 x[1,5,1]     *              1             0             1 
     6 x[1,6,1]     *              0             0             1 
     7 x[1,7,1]     *              0             0             1 
     8 x[1,8,1]     *              0             0             1 
     9 x[2,1,1]     *              0             0             1 
    10 x[2,2,1]     *              0             0             1 
    11 x[2,3,1]     *              0             0             1 
    12 x[2,4,1]     *              0             0             1 
    13 x[2,5,1]     *              0             0             1 
    14 x[2,6,1]     *              0             0             1 
    15 x[2,7,1]     *              0             0             1 
    16 x[2,8,1]     *              0             0             1 
    17 x[3,1,1]     *              0             0             1 
    18 x[3,2,1]     *              0             0             1 
    19 x[3,3,1]     *              0             0             1 
    20 x[3,4,1]     *              0             0             1 
    21 x[3,5,1]     *              0             0             1 
    22 x[3,6,1]     *              0             0             1 
    23 x[3,7,1]     *              0             0             1 
    24 x[3,8,1]     *              0             0             1 
    25 x[4,1,1]     *              0             0             1 
    26 x[4,2,1]     *              0             0             1 
    27 x[4,3,1]     *              0             0             1 
    28 x[4,4,1]     *              0             0             1 
    29 x[4,5,1]     *              0             0             1 
    30 x[4,6,1]     *              0             0             1 
    31 x[4,7,1]     *              0             0             1 
    32 x[4,8,1]     *              1             0             1 
    33 x[5,1,1]     *              0             0             1 
    34 x[5,2,1]     *              0             0             1 
    35 x[5,3,1]     *              0             0             1 
    36 x[5,4,1]     *              0             0             1 
    37 x[5,5,1]     *              0             0             1 
    38 x[5,6,1]     *              1             0             1 
    39 x[5,7,1]     *              0             0             1 
    40 x[5,8,1]     *              0             0             1 
    41 x[6,1,1]     *              0             0             1 
    42 x[6,2,1]     *              0             0             1 
    43 x[6,3,1]     *              0             0             1 
    44 x[6,4,1]     *              1             0             1 
    45 x[6,5,1]     *              0             0             1 
    46 x[6,6,1]     *              0             0             1 
    47 x[6,7,1]     *              0             0             1 
    48 x[6,8,1]     *              0             0             1 
    49 x[7,1,1]     *              0             0             1 
    50 x[7,2,1]     *              0             0             1 
    51 x[7,3,1]     *              0             0             1 
    52 x[7,4,1]     *              0             0             1 
    53 x[7,5,1]     *              0             0             1 
    54 x[7,6,1]     *              0             0             1 
    55 x[7,7,1]     *              0             0             1 
    56 x[7,8,1]     *              0             0             1 
    57 x[8,1,1]     *              0             0             1 
    58 x[8,2,1]     *              0             0             1 
    59 x[8,3,1]     *              0             0             1 
    60 x[8,4,1]     *              0             0             1 
    61 x[8,5,1]     *              0             0             1 
    62 x[8,6,1]     *              0             0             1 
    63 x[8,7,1]     *              0             0             1 
    64 x[8,8,1]     *              0             0             1 
    65 x[1,1,2]     *              0             0             1 
    66 x[1,2,2]     *              1             0             1 
    67 x[1,3,2]     *              0             0             1 
    68 x[1,4,2]     *              0             0             1 
    69 x[1,5,2]     *              0             0             1 
    70 x[1,6,2]     *              0             0             1 
    71 x[1,7,2]     *              0             0             1 
    72 x[1,8,2]     *              0             0             1 
    73 x[2,1,2]     *              0             0             1 
    74 x[2,2,2]     *              0             0             1 
    75 x[2,3,2]     *              1             0             1 
    76 x[2,4,2]     *              0             0             1 
    77 x[2,5,2]     *              0             0             1 
    78 x[2,6,2]     *              0             0             1 
    79 x[2,7,2]     *              0             0             1 
    80 x[2,8,2]     *              0             0             1 
    81 x[3,1,2]     *              0             0             1 
    82 x[3,2,2]     *              0             0             1 
    83 x[3,3,2]     *              0             0             1 
    84 x[3,4,2]     *              0             0             1 
    85 x[3,5,2]     *              0             0             1 
    86 x[3,6,2]     *              0             0             1 
    87 x[3,7,2]     *              1             0             1 
    88 x[3,8,2]     *              0             0             1 
    89 x[4,1,2]     *              0             0             1 
    90 x[4,2,2]     *              0             0             1 
    91 x[4,3,2]     *              0             0             1 
    92 x[4,4,2]     *              0             0             1 
    93 x[4,5,2]     *              0             0             1 
    94 x[4,6,2]     *              0             0             1 
    95 x[4,7,2]     *              0             0             1 
    96 x[4,8,2]     *              0             0             1 
    97 x[5,1,2]     *              0             0             1 
    98 x[5,2,2]     *              0             0             1 
    99 x[5,3,2]     *              0             0             1 
   100 x[5,4,2]     *              0             0             1 
   101 x[5,5,2]     *              0             0             1 
   102 x[5,6,2]     *              0             0             1 
   103 x[5,7,2]     *              0             0             1 
   104 x[5,8,2]     *              0             0             1 
   105 x[6,1,2]     *              0             0             1 
   106 x[6,2,2]     *              0             0             1 
   107 x[6,3,2]     *              0             0             1 
   108 x[6,4,2]     *              0             0             1 
   109 x[6,5,2]     *              0             0             1 
   110 x[6,6,2]     *              0             0             1 
   111 x[6,7,2]     *              0             0             1 
   112 x[6,8,2]     *              0             0             1 
   113 x[7,1,2]     *              0             0             1 
   114 x[7,2,2]     *              0             0             1 
   115 x[7,3,2]     *              0             0             1 
   116 x[7,4,2]     *              0             0             1 
   117 x[7,5,2]     *              0             0             1 
   118 x[7,6,2]     *              0             0             1 
   119 x[7,7,2]     *              0             0             1 
   120 x[7,8,2]     *              1             0             1 
   121 x[8,1,2]     *              0             0             1 
   122 x[8,2,2]     *              0             0             1 
   123 x[8,3,2]     *              0             0             1 
   124 x[8,4,2]     *              0             0             1 
   125 x[8,5,2]     *              0             0             1 
   126 x[8,6,2]     *              0             0             1 
   127 x[8,7,2]     *              0             0             1 
   128 x[8,8,2]     *              0             0             1 

Integer feasibility conditions:

KKT.PE: max.abs.err = 0.00e+00 on row 0
        max.rel.err = 0.00e+00 on row 0
        High quality

KKT.PB: max.abs.err = 0.00e+00 on row 0
        max.rel.err = 0.00e+00 on row 0
        High quality

End of output
